swarm_exploration/utils/lkh_mtsp_solver/resource/amtsp_2.atsp
NAME : amtsp
TYPE : ATSP
DIMENSION : 5
EDGE_WEIGHT_TYPE : EXPLICIT
EDGE_WEIGHT_FORMAT : FULL_MATRIX
EDGE_WEIGHT_SECTION
100000 -100000 100000 100000 100000 
100000 100000 270 235 100000 
0 0 100000 139 274 
0 0 139 100000 352 
-100000 100000 274 352 100000 
