swarm_exploration/utils/lkh_mtsp_solver/resource/amtsp_2.tour
NAME : amtsp.-199335.tour
COMMENT : Length = -199335
COMMENT : Found by LKH [Keld Helsgaun] Fri Oct 13 14:51:29 2023
TYPE : TOUR
DIMENSION : 4
TOUR_SECTION
1
2
3
4
-1
EOF
